Cases/Case 30/case30.dat

set Buses :=     1     2     3     4     5     6     7     8     9    10    11    12    13    14    15    16    17    18    19    20    21    22    23    24    25    26    27    28    29    30;
set Lines :=   1   2   3   4   5   6   7   8   9  10  11  12  13  14  15  16  17  18  19  20  21  22  23  24  25  26  27  28  29  30  31  32  33  34  35  36  37  38  39  40  41;
set Generators :=   1   2   3   4   5   6;


# Generator data:

param Cost1 :=    1  200.000000000000000,   2  175.000000000000030,   3  625.000000000000000,   4   83.400000000000006,   5  250.000000000000000,   6  250.000000000000000;
param Cost2 :=    1  200.000000000000000,   2  175.000000000000000,   3  100.000000000000000,   4  325.000000000000000,   5  300.000000000000000,   6  300.000000000000000;
param Cost3 :=    1    0.000000000000000,   2    0.000000000000000,   3    0.000000000000000,   4    0.000000000000000,   5    0.000000000000000,   6    0.000000000000000;
param RealPowerGenLimitLower :=    1    0.000000000000000,   2    0.000000000000000,   3    0.000000000000000,   4    0.000000000000000,   5    0.000000000000000,   6    0.000000000000000;
param RealPowerGenLimitUpper :=    1    0.800000000000000,   2    0.800000000000000,   3    0.500000000000000,   4    0.550000000000000,   5    0.300000000000000,   6    0.400000000000000;
param ReactivePowerGenLimitLower :=    1   -0.200000000000000,   2   -0.200000000000000,   3   -0.150000000000000,   4   -0.150000000000000,   5   -0.100000000000000,   6   -0.150000000000000;
param ReactivePowerGenLimitUpper :=    1    1.500000000000000,   2    0.600000000000000,   3    0.625000000000000,   4    0.487000000000000,   5    0.400000000000000,   6    0.447000000000000;
param GenLocation :=    1            1,   2            2,   3           22,   4           27,   5           23,   6           13;


# Bus data:

param SusceptanceOfReactivePower :=    1    0.000000000000000,   2    0.000000000000000,   3    0.000000000000000,   4    0.000000000000000,   5    0.001900000000000,   6    0.000000000000000,   7    0.000000000000000,   8    0.000000000000000,   9    0.000000000000000,  10    0.000000000000000,  11    0.000000000000000,  12    0.000000000000000,  13    0.000000000000000,  14    0.000000000000000,  15    0.000000000000000,  16    0.000000000000000,  17    0.000000000000000,  18    0.000000000000000,  19    0.000000000000000,  20    0.000000000000000,  21    0.000000000000000,  22    0.000000000000000,  23    0.000000000000000,  24    0.000400000000000,  25    0.000000000000000,  26    0.000000000000000,  27    0.000000000000000,  28    0.000000000000000,  29    0.000000000000000,  30    0.000000000000000;
param VoltageLimitLower :=    1    0.950000000000000,   2    0.950000000000000,   3    0.950000000000000,   4    0.950000000000000,   5    0.950000000000000,   6    0.950000000000000,   7    0.950000000000000,   8    0.950000000000000,   9    0.950000000000000,  10    0.950000000000000,  11    0.950000000000000,  12    0.950000000000000,  13    0.950000000000000,  14    0.950000000000000,  15    0.950000000000000,  16    0.950000000000000,  17    0.950000000000000,  18    0.950000000000000,  19    0.950000000000000,  20    0.950000000000000,  21    0.950000000000000,  22    0.950000000000000,  23    0.950000000000000,  24    0.950000000000000,  25    0.950000000000000,  26    0.950000000000000,  27    0.950000000000000,  28    0.950000000000000,  29    0.950000000000000,  30    0.950000000000000;
param VoltageLimitUpper :=    1    1.050000000000000,   2    1.100000000000000,   3    1.050000000000000,   4    1.050000000000000,   5    1.050000000000000,   6    1.050000000000000,   7    1.050000000000000,   8    1.050000000000000,   9    1.050000000000000,  10    1.050000000000000,  11    1.050000000000000,  12    1.050000000000000,  13    1.100000000000000,  14    1.050000000000000,  15    1.050000000000000,  16    1.050000000000000,  17    1.050000000000000,  18    1.050000000000000,  19    1.050000000000000,  20    1.050000000000000,  21    1.050000000000000,  22    1.100000000000000,  23    1.100000000000000,  24    1.050000000000000,  25    1.050000000000000,  26    1.050000000000000,  27    1.100000000000000,  28    1.050000000000000,  29    1.050000000000000,  30    1.050000000000000;
param RealPowerBusDemand :=    1    0.000000000000000,   2    0.217000000000000,   3    0.024000000000000,   4    0.076000000000000,   5    0.000000000000000,   6    0.000000000000000,   7    0.228000000000000,   8    0.300000000000000,   9    0.000000000000000,  10    0.058000000000000,  11    0.000000000000000,  12    0.112000000000000,  13    0.000000000000000,  14    0.062000000000000,  15    0.082000000000000,  16    0.035000000000000,  17    0.090000000000000,  18    0.032000000000000,  19    0.095000000000000,  20    0.022000000000000,  21    0.175000000000000,  22    0.000000000000000,  23    0.032000000000000,  24    0.087000000000000,  25    0.000000000000000,  26    0.035000000000000,  27    0.000000000000000,  28    0.000000000000000,  29    0.024000000000000,  30    0.106000000000000;
param ReactivePowerBusDemand :=    1    0.000000000000000,   2    0.127000000000000,   3    0.012000000000000,   4    0.016000000000000,   5    0.000000000000000,   6    0.000000000000000,   7    0.109000000000000,   8    0.300000000000000,   9    0.000000000000000,  10    0.020000000000000,  11    0.000000000000000,  12    0.075000000000000,  13    0.000000000000000,  14    0.016000000000000,  15    0.025000000000000,  16    0.018000000000000,  17    0.058000000000000,  18    0.009000000000000,  19    0.034000000000000,  20    0.007000000000000,  21    0.112000000000000,  22    0.000000000000000,  23    0.016000000000000,  24    0.067000000000000,  25    0.000000000000000,  26    0.023000000000000,  27    0.000000000000000,  28    0.000000000000000,  29    0.009000000000000,  30    0.019000000000000;


# Line data:

param ThermalLineLimit :=    1    1.300000000000000,   2    1.300000000000000,   3    0.650000000000000,   4    1.300000000000000,   5    1.300000000000000,   6    0.650000000000000,   7    0.900000000000000,   8    0.700000000000000,   9    1.300000000000000,  10    0.320000000000000,  11    0.650000000000000,  12    0.320000000000000,  13    0.650000000000000,  14    0.650000000000000,  15    0.650000000000000,  16    0.650000000000000,  17    0.320000000000000,  18    0.320000000000000,  19    0.320000000000000,  20    0.160000000000000,  21    0.160000000000000,  22    0.160000000000000,  23    0.160000000000000,  24    0.320000000000000,  25    0.320000000000000,  26    0.320000000000000,  27    0.320000000000000,  28    0.320000000000000,  29    0.320000000000000,  30    0.160000000000000,  31    0.160000000000000,  32    0.160000000000000,  33    0.160000000000000,  34    0.160000000000000,  35    0.160000000000000,  36    0.650000000000000,  37    0.160000000000000,  38    0.160000000000000,  39    0.160000000000000,  40    0.320000000000000,  41    0.320000000000000;
param LineConductance :=    1    5.000000000000000,   2    1.295336787564767,   3    1.846153846153846,   4    5.882352941176470,   5    1.176470588235294,   6    1.666666666666667,   7    5.882352941176470,   8    2.958579881656805,   9    4.109589041095890,  10    5.882352941176470,  11    0.000000000000000,  12    0.000000000000000,  13    0.000000000000000,  14    0.000000000000000,  15    0.000000000000000,  16    0.000000000000000,  17    1.463414634146341,  18    3.211009174311927,  19    1.871101871101871,  20    2.488687782805430,  21    1.882352941176471,  22    1.818181818181818,  23    2.926829268292683,  24    5.172413793103448,  25    1.724137931034483,  26    4.109589041095890,  27    5.172413793103448,  28    2.554744525547446,  29   20.000000000000000,  30    2.000000000000000,  31    2.564102564102564,  32    1.447661469933185,  33    1.310344827586207,  34    1.208313194780087,  35    1.957295373665481,  36    0.000000000000000,  37    0.978647686832740,  38    0.692041522491350,  39    0.922722029988466,  40    1.376146788990825,  41    5.000000000000000;
param LineSusceptance :=    1  -15.000000000000000,   2   -4.922279792746114,   3   -5.230769230769230,   4  -23.529411764705880,   5   -4.705882352941176,   6   -5.000000000000000,   7  -23.529411764705880,   8   -7.100591715976332,   9  -10.958904109589040,  10  -23.529411764705880,  11   -4.761904761904763,  12   -1.785714285714286,  13   -4.761904761904763,  14   -9.090909090909092,  15   -3.846153846153846,  16   -7.142857142857142,  17   -3.170731707317073,  18   -5.963302752293577,  19   -4.158004158004158,  20   -2.262443438914027,  21   -4.470588235294118,  22   -3.636363636363637,  23   -6.341463414634147,  24  -12.068965517241379,  25   -4.022988505747127,  26  -10.958904109589040,  27  -12.068965517241379,  28   -5.474452554744525,  29  -40.000000000000000,  30   -4.000000000000000,  31   -3.846153846153846,  32   -3.006681514476615,  33   -2.275862068965517,  34   -1.836636056065732,  35   -3.736654804270463,  36   -2.500000000000000,  37   -1.868327402135231,  38   -1.297577854671280,  39   -1.730103806228374,  40   -4.587155963302751,  41  -15.000000000000000;
param ShuntSusceptance :=    1    0.030000000000000,   2    0.020000000000000,   3    0.020000000000000,   4    0.000000000000000,   5    0.020000000000000,   6    0.020000000000000,   7    0.000000000000000,   8    0.010000000000000,   9    0.010000000000000,  10    0.000000000000000,  11    0.000000000000000,  12    0.000000000000000,  13    0.000000000000000,  14    0.000000000000000,  15    0.000000000000000,  16    0.000000000000000,  17    0.000000000000000,  18    0.000000000000000,  19    0.000000000000000,  20    0.000000000000000,  21    0.000000000000000,  22    0.000000000000000,  23    0.000000000000000,  24    0.000000000000000,  25    0.000000000000000,  26    0.000000000000000,  27    0.000000000000000,  28    0.000000000000000,  29    0.000000000000000,  30    0.000000000000000,  31    0.000000000000000,  32    0.000000000000000,  33    0.000000000000000,  34    0.000000000000000,  35    0.000000000000000,  36    0.000000000000000,  37    0.000000000000000,  38    0.000000000000000,  39    0.000000000000000,  40    0.020000000000000,  41    0.010000000000000;
param LineResistance :=    1    0.020000000000000,   2    0.050000000000000,   3    0.060000000000000,   4    0.010000000000000,   5    0.050000000000000,   6    0.060000000000000,   7    0.010000000000000,   8    0.050000000000000,   9    0.030000000000000,  10    0.010000000000000,  11    0.000000000000000,  12    0.000000000000000,  13    0.000000000000000,  14    0.000000000000000,  15    0.000000000000000,  16    0.000000000000000,  17    0.120000000000000,  18    0.070000000000000,  19    0.090000000000000,  20    0.220000000000000,  21    0.080000000000000,  22    0.110000000000000,  23    0.060000000000000,  24    0.030000000000000,  25    0.090000000000000,  26    0.030000000000000,  27    0.030000000000000,  28    0.070000000000000,  29    0.010000000000000,  30    0.100000000000000,  31    0.120000000000000,  32    0.130000000000000,  33    0.190000000000000,  34    0.250000000000000,  35    0.110000000000000,  36    0.000000000000000,  37    0.220000000000000,  38    0.320000000000000,  39    0.240000000000000,  40    0.060000000000000,  41    0.020000000000000;
param FromBus :=    1            1,   2            1,   3            2,   4            3,   5            2,   6            2,   7            4,   8            5,   9            6,  10            6,  11            6,  12            6,  13            9,  14            9,  15            4,  16           12,  17           12,  18           12,  19           12,  20           14,  21           16,  22           15,  23           18,  24           19,  25           10,  26           10,  27           10,  28           10,  29           21,  30           15,  31           22,  32           23,  33           24,  34           25,  35           25,  36           28,  37           27,  38           27,  39           29,  40            8,  41            6;
param ToBus :=    1            2,   2            3,   3            4,   4            4,   5            5,   6            6,   7            6,   8            7,   9            7,  10            8,  11            9,  12           10,  13           11,  14           10,  15           12,  16           13,  17           14,  18           15,  19           16,  20           15,  21           17,  22           18,  23           19,  24           20,  25           20,  26           17,  27           21,  28           22,  29           22,  30           23,  31           24,  32           24,  33           25,  34           26,  35           27,  36           27,  37           29,  38           30,  39           30,  40           28,  41           28;
